p cnf 15 12
-1 -2 10 -3 -4 14 15 0 
-5 7 15 0 
-1 -6 -3 -7 5 15 0 
-2 10 -1 -3 -4 14 -8 15 0 
-3 -1 -4 14 15 0 
-9 -10 2 -4 14 -11 13 15 0 
-4 14 -12 -13 11 15 0 
-8 -1 -2 10 -3 -4 14 15 0 
-6 -14 4 -7 5 15 0 
-6 -7 5 15 0 
-4 14 -7 5 15 0 
-4 14 15 0 
